37500
14
18
36
38
39
47
50
57
60
70
88
92
6
10
13
26
27
31
43
46
52
62
78
99
2
3
4
5
8
11
16
28
29
34
44
48
51
53
54
58
64
67
68
73
74
82
84
86
89
90
91
93
97
1
9
19
22
23
24
33
69
75
76
79
96
98
7
17
21
25
35
37
40
56
63
66
72
80
81
83
87
94
95
100
12
15
30
41
42
45
49
55
71
85
59
65
77
32
61
20
